
0	0	0
-46	14	20
50	30	14
-24	74	5
30	82	11
-44	4	22
-42	22	25
-6	48	2
4	82	18
20	68	10
42	40	26
24	94	14
-36	-4	22
38	80	9
10	6	11
10	80	18
24	28	24
14	8	15
-8	10	23
-34	54	16
-4	94	14
40	68	8
-36	32	5
-26	6	12
30	76	8
-44	58	16
0	90	12
6	70	15
26	50	9
34	66	2
42	70	10
-36	4	2
-20	32	3
48	54	20
16	58	3
-10	16	13
-14	42	25
-24	58	23
-34	50	8
0	88	16
-2	38	9
36	2	14
22	86	4
-34	6	13
-10	10	7
6	54	16
50	78	18
28	26	16
